p cnf 91 220
-8 -9 10 0 
-8 -10 9 0 
-11 -12 16 0 
-11 12 23 0 
-12 -13 0 
-13 -14 15 0 
-13 -15 14 0 
-16 -17 18 0 
-16 17 21 0 
-17 14 0 
-1 25 0 
1 33 0 
-18 -19 0 
-19 -20 0 
-21 -22 0 
-22 20 0 
-23 -24 0 
-25 -26 27 0 
-25 26 29 0 
-1 2 11 0 
-26 9 0 
-27 -28 0 
-29 -12 30 0 
-29 12 32 0 
-30 -17 27 0 
-30 17 31 0 
-31 28 0 
-32 -20 28 0 
-32 -28 20 0 
-33 -28 34 0 
-33 -34 28 0 
-35 44 0 
35 91 0 
-2 3 7 0 
-35 -36 0 
-36 37 0 
-37 -38 -41 0 
-37 38 41 0 
-38 -39 0 
-39 -40 0 
-41 -42 0 
-42 -43 0 
-44 -45 46 0 
-44 45 68 0 
-3 -4 0 
-45 -38 0 
-46 -47 56 0 
-46 47 66 0 
-47 -48 0 
-48 49 0 
-49 -50 -53 0 
-49 50 53 0 
-50 -51 0 
-51 -52 0 
-53 -54 0 
-54 -55 0 
-4 -5 6 0 
-4 -6 5 0 
-56 57 0 
-57 -58 0 
-58 59 0 
-59 -60 -63 0 
-59 60 63 0 
-60 -61 0 
-61 -62 0 
-63 -64 0 
-64 -65 0 
-66 67 0 
-67 63 0 
-68 -69 70 0 
-68 69 56 0 
-69 50 0 
-70 -47 56 0 
-70 47 71 0 
-71 -72 78 0 
-71 72 90 0 
-72 -73 0 
-73 74 0 
-74 -41 -75 0 
-74 41 75 0 
-75 -76 0 
-76 -77 0 
-78 -79 80 0 
-78 79 87 0 
-79 -41 0 
-80 -81 87 0 
-80 81 66 0 
-81 -82 0 
-82 83 0 
-83 -53 -84 0 
-83 53 84 0 
-84 -85 0 
-7 -8 0 
-85 -86 0 
-87 88 89 0 
-88 -63 0 
-89 57 66 0 
-90 -79 66 0 
-90 79 87 0 
-91 -45 66 0 
-91 45 68 0 
8 -9 -10 0 
8 9 10 0 
11 -12 -16 0 
11 -16 -23 0 
11 12 -23 0 
12 13 0 
13 -14 -15 0 
13 14 15 0 
16 -17 -18 0 
16 -18 -21 0 
16 17 -21 0 
17 -14 0 
18 19 0 
19 20 0 
21 22 0 
22 -20 0 
23 24 0 
-20 24 0 
24 20 0 
25 -26 -27 0 
25 -27 -29 0 
25 26 -29 0 
1 -11 0 
1 -2 0 
26 -9 0 
27 28 0 
29 -12 -30 0 
29 -30 -32 0 
29 12 -32 0 
30 -17 -27 0 
30 -27 -31 0 
30 17 -31 0 
31 -28 0 
32 -28 -20 0 
32 28 20 0 
33 -28 -34 0 
33 28 34 0 
2 -3 0 
2 -7 0 
35 36 0 
36 -37 0 
37 -38 41 0 
37 -41 38 0 
38 39 0 
39 40 0 
41 42 0 
42 43 0 
44 -45 -46 0 
44 -46 -68 0 
44 45 -68 0 
3 4 0 
45 38 0 
46 -47 -56 0 
46 -56 -66 0 
46 47 -66 0 
47 48 0 
48 -49 0 
49 -50 53 0 
49 -53 50 0 
50 51 0 
51 52 0 
53 54 0 
54 55 0 
4 -5 -6 0 
4 5 6 0 
56 -57 0 
57 58 0 
58 -59 0 
59 -60 63 0 
59 -63 60 0 
60 61 0 
61 62 0 
63 64 0 
64 65 0 
66 -67 0 
67 -63 0 
68 -69 -70 0 
68 -70 -56 0 
68 69 -56 0 
69 -50 0 
70 -47 -56 0 
70 -56 -71 0 
70 47 -71 0 
71 -72 -78 0 
71 -78 -90 0 
71 72 -90 0 
72 73 0 
73 -74 0 
74 -41 75 0 
74 -75 41 0 
75 76 0 
76 77 0 
78 -79 -80 0 
78 -80 -87 0 
78 79 -87 0 
79 41 0 
80 -81 -87 0 
80 -87 -66 0 
80 81 -66 0 
81 82 0 
82 -83 0 
83 -53 84 0 
83 -84 53 0 
84 85 0 
7 8 0 
85 86 0 
87 -89 0 
87 -88 0 
87 88 -89 0 
88 63 0 
89 -66 0 
89 -57 0 
89 57 -66 0 
90 -66 -87 0 
90 -79 -66 0 
90 79 -87 0 
91 -45 -66 0 
91 -66 -68 0 
91 45 -68 0 
